c --- [ banner ] -------------------------------------------------------------
c 
c CaDiCaL Radically Simplified CDCL SAT Solver
c Copyright (c) 2016-2021 A. Biere, M. Fleury, N. Froleyks
c 
c Version 1.5.2 ca9bff05c11bde5eae4912f9932871d1527e61d8
c g++ (GCC) 9.3.0 -Wall -Wextra -O3 -DNDEBUG
c Sun May 1 02:23:23 EDT 2022 Linux gra-login1 3.10.0-1160.59.1.el7.x86_64 x86_64
c 
c --- [ limit ] --------------------------------------------------------------
c 
c setting conflict limit to 200000 conflicts (due to '200000')
c 
c --- [ parsing input ] ------------------------------------------------------
c 
c reading DIMACS file from '26.cubes546.adj'
c opening file to read '26.cubes546.adj'
c found 'p cnf 5320 924213' header
c parsed 924213 clauses in 9.24 seconds process time
c closing file '26.cubes546.adj'
c after reading 686668136 bytes 654.9 MB
c 
c --- [ options ] ------------------------------------------------------------
c 
c all options are set to their default value
c 
c --- [ solving ] ------------------------------------------------------------
c 
c time measured in process time since initialization
c 
c  seconds   reductions  redundant  irredundant
c          MB    restarts       trail      variables
c           level   conflicts       glue        remaining
c 
c *  9.25 691  0 0   0    0    0  0% 0 923580 4041 76%
c { 10.92 743  0 0   0    0    0  0% 0 923580 4041 76%
c i 13.91 769 76 0  11   80   71 41% 8 923580 3918 74%
c i 14.17 770 67 0  11   97   84 41% 8 923580 3908 73%
c i 15.42 772 61 0  35  220  157 42% 17 923580 3906 73%
c i 15.44 772 61 0  36  225  161 42% 17 923580 3905 73%
c i 15.48 772 61 0  38  232  166 43% 18 923580 3904 73%
c i 15.62 773 62 0  40  239  171 43% 18 923580 3903 73%
c i 15.68 773 64 0  42  245  175 43% 19 923580 3902 73%
c i 15.90 774 71 0  52  283  206 43% 24 923580 3901 73%
c i 15.90 774 70 0  52  285  207 43% 24 923580 3900 73%
c i 15.94 774 70 0  54  292  213 43% 23 923580 3899 73%
c - 17.92 754 71 1  57  300  210 43% 23 217509 3899 73%
c i 18.48 680 61 1  64  394  251 43% 21 217509 3898 73%
c i 18.61 680 61 1  64  405  261 43% 22 217509 3897 73%
c i 19.13 681 61 1  78  477  321 45% 23 217509 3896 73%
c i 19.19 681 61 1  81  486  326 45% 23 217509 3895 73%
c i 19.33 681 62 1  87  511  346 45% 23 217509 3894 73%
c i 19.51 681 62 1  91  535  363 45% 23 217509 3893 73%
c i 19.56 681 60 1  91  555  380 46% 23 217509 3892 73%
c 
c  seconds   reductions  redundant   irredundant
c          MB    restarts       trail       variables
c           level   conflicts       glue         remaining
c 
c i 19.60 681 56 1  91  614  426 47% 22 217509 3891 73%
c i 19.60 681 56 1  91  617  427 47% 22 217509 3889 73%
c i 19.62 681 55 1  91  641  447 47% 22 217509 3888 73%
c i 19.63 681 53 1  91  674  472 47% 22 217509 3887 73%
c } 19.95 681 44 1  94 1003  695 50% 20 217509 3887 73%
c [ 19.95 681  0 1  94 1003  695  0% 0 217509 3887 73%
c O 19.95 681  0 1  94 1004  695 27% 0 217509 3887 73%
c i 19.95 681  0 1  94 1004  695 27% 0 217509 3829 72%
c - 20.69 763 16 2  94 1102  674 49% 14 216909 3829 72%
c i 20.93 763 19 2  94 1195  743 54% 17 216909 3828 72%
c i 20.97 763 20 2  94 1235  772 55% 17 216909 3827 72%
c i 21.11 763 21 2  94 1508  944 56% 18 216909 3826 72%
c i 21.14 763 21 2  94 1564  981 56% 18 216909 3825 72%
c i 21.23 763 24 2  94 1684 1064 56% 21 216909 3824 72%
c - 21.76 763 27 3  95 2309 1110 56% 23 216897 3824 72%
c ] 22.48 762 26 3  95 3003 1579 41% 23 216897 3824 72%
c { 22.48 762 44 3  95 3003 1579 70% 20 216897 3824 72%
c F 22.55 762 44 3  96 3005 1581 70% 20 216897 3824 72%
c i 22.63 762 42 3  99 3056 1621 69% 20 216897 3823 72%
c i 22.73 762 39 3  99 3185 1726 66% 19 216897 3822 72%
c 
c  seconds   reductions  redundant   irredundant
c          MB    restarts       trail       variables
c           level   conflicts       glue         remaining
c 
c i 22.74 762 39 3  99 3193 1732 65% 19 216897 3821 72%
c i 22.79 762 39 3  99 3207 1744 65% 19 216897 3820 72%
c i 22.80 762 39 3  99 3209 1745 65% 19 216897 3819 72%
c i 22.80 762 39 3  99 3214 1749 65% 19 216897 3818 72%
c i 23.05 762 40 3 119 3315 1842 63% 20 216897 3817 72%
c i 23.28 762 41 3 145 3424 1938 61% 20 216897 3816 72%
c i 23.92 762 42 3 162 3591 2035 57% 22 216897 3815 72%
c i 24.32 762 44 3 190 3792 2168 54% 23 216897 3814 72%
c i 24.34 762 44 3 190 3798 2173 54% 23 216897 3813 72%
c - 25.01 746 46 4 206 3913 1673 52% 23 216864 3813 72%
c i 25.08 746 46 4 210 3932 1689 52% 23 216864 3812 72%
c i 25.89 746 45 4 233 4414 2107 49% 24 216864 3811 72%
c d 26.36 746 41 4 233 5000 2552 47% 22 196742 3802 71%
c 2 26.40 746 41 4 233 5000 3897 47% 22 196686 3775 71%
c p 28.50 746 41 4 233 5000 7643 47% 22 196686 3721 70%
c d 28.78 746 41 4 233 5000 7604 47% 22 195640 3720 70%
c i 28.94 746 41 4 239 5056 7657 47% 23 195640 3719 70%
c - 30.61 667 44 5 367 5920 2497 43% 24 195637 3719 70%
c # 30.67 667 44 5 367 6007 2570 43% 24 195637 3719 70%
c } 31.93 667 44 5 438 7003 3391 42% 25 195637 3719 70%
c 
c  seconds   reductions  redundant   irredundant
c          MB    restarts       trail       variables
c           level   conflicts       glue         remaining
c 
c [ 31.94 667 26 5 438 7003 3391 41% 23 195637 3719 70%
c - 32.47 735 36 6 439 8244 3032 40% 30 195637 3719 70%
c I 32.93 735 37 6 440 10009 4258 39% 31 195637 3719 70%
c - 33.38 667 41 7 441 10956 3481 38% 33 195637 3719 70%
c - 34.89 735 42 8 443 14058 3936 37% 33 195637 3719 70%
c 2 35.31 735 41 8 443 15000 6104 37% 33 195626 3719 70%
c p 35.54 735 41 8 443 15000 9890 37% 33 195626 3719 70%
c d 35.58 735 41 8 443 15000 9888 37% 33 195624 3717 70%
c ] 35.61 735 41 8 443 15003 9891 37% 33 195624 3717 70%
c { 35.61 735 44 8 443 15003 9891 42% 25 195624 3717 70%
c B 35.65 735 44 8 445 15010 9898 42% 25 195624 3717 70%
c s 36.55 735 45 8 556 15673 10279 41% 26 193573 3717 70%
c v 38.19 735 45 8 556 15673 10279 41% 26 193487 3717 70%
c w 38.24 735 45 8 556 15673 10270 41% 26 193487 3717 70%
c t 38.25 735 45 8 556 15673 10257 41% 26 193412 3717 70%
c e 39.13 736 45 8 556 15673 6371 41% 26 188466 1108 21%
c s 39.25 736 45 8 556 15673 6371 41% 26 187534 1108 21%
c - 41.97 667 39 9 569 17544 4763 59% 24 187534 1108 21%
c W 45.51 667 34 9 588 21011 7245 60% 22 187534 1108 21%
c - 46.26 667 34 10 622 21363 5017 60% 22 187534 1108 21%
c 
c  seconds   reductions    redundant   irredundant
c          MB     restarts        trail       variables
c           level     conflicts       glue         remaining
c 
c - 52.76 667 34 11 885 25568 5520 60% 22 187534 1108 21%
c F 53.99 667 32 11 885 28013 7171 60% 21 187534 1108 21%
c 2 58.20 667 32 11 1105 30003 9461 60% 22 187533 1108 21%
c p 58.98 667 32 11 1105 30003 11029 60% 22 187533 1108 21%
c - 59.64 667 32 12 1113 30151 6394 60% 22 187533 1108 21%
c } 60.22 667 32 12 1113 31004 6953 60% 21 187533 1108 21%
c [ 60.22 667 41 12 1113 31004 6953 128% 33 187533 1108 21%
c - 63.00 667 36 13 1115 35120 6254 106% 29 187533 1108 21%
c B 63.56 667 35 13 1116 36015 6788 103% 29 187533 1108 21%
c - 66.31 667 43 14 1119 40470 7334 92% 34 187533 1108 21%
c W 69.39 667 46 14 1120 45018 10958 86% 37 187533 1108 21%
c s 69.73 667 47 14 1120 45286 11173 86% 37 186758 1108 21%
c v 72.56 667 47 14 1120 45286 11173 86% 37 186725 1108 21%
c e 73.66 667 47 14 1120 45286 11171 86% 37 186716 1099 21%
c s 73.87 667 47 14 1120 45286 11171 86% 37 185880 1099 21%
c - 75.78 667 47 15 1121 46203 8289 85% 38 185880 1099 21%
c p 78.55 667 48 15 1121 50003 13575 81% 39 185880 1099 21%
c - 80.12 667 48 16 1121 52295 8875 79% 39 185880 1099 21%
c O 81.37 667 47 16 1122 55019 10698 78% 38 185880 1099 21%
c ] 81.50 667 47 16 1123 55392 10967 78% 38 185880 1099 21%
c 
c  seconds   reductions      redundant   irredundant
c          MB     restarts          trail       variables
c           level      conflicts        glue         remaining
c 
c 1 81.50 667 47 16 1123 55392 10967 78% 38 185880 1099 21%
c 
c --- [ writing output ] -----------------------------------------------------
c 
c writing simplified CNF to DIMACS file 'simp/26.cubes546.adj.simp1'
c * 81.50 667 47 16 1123 55392 10967 78% 38 185880 1099 21%
c opening file to write 'simp/26.cubes546.adj.simp1'
c writing 'p cnf 5320 185880' header
c closing file 'simp/26.cubes546.adj.simp1'
c after writing 75595890 bytes 72.1 MB
c wrote 185880 clauses in 0.58 seconds process time
c 
c --- [ writing extension ] --------------------------------------------------
c 
c writing extension stack to 'simp/26.cubes546.adj.ext1'
c opening file to write 'simp/26.cubes546.adj.ext1'
c closing file 'simp/26.cubes546.adj.ext1'
c after writing 161356 bytes 0.2 MB
c wrote 7236 witnesses in 0.00 seconds process time
c 
c --- [ result ] -------------------------------------------------------------
c 
s SATISFIABLE
c 
c --- [ run-time profiling ] -------------------------------------------------
c 
c process time taken by individual solving procedures
c (percentage relative to process time for solving)
c 
c        59.00   81.65% search
c        35.89   49.67% unstable
c        20.30   28.10% stable
c        13.26   18.35% simplify
c         9.24   12.79% parse
c         4.69    6.50% vivify
c         3.80    5.26% probe
c         3.31    4.57% elim
c         1.67    2.31% lucky
c         1.13    1.56% walk
c         0.64    0.89% subsume
c         0.12    0.16% ternary
c   =================================
c        72.26   88.03% solve
c 
c last line shows process time for solving
c (percentage relative to total process time)
c 
c --- [ statistics ] ---------------------------------------------------------
c 
c chronological:             10249        18.50 %  of conflicts
c conflicts:                 55392       766.57    per second
c decisions:                136475      1888.68    per second
c eliminated:                 2618        49.21 %  of all variables
c fixed:                      1591        29.91 %  of all variables
c learned:                   54331        98.08 %  per conflict
c learned_lits:            9875722       100.00 %  learned literals
c minimized:                     0         0.00 %  learned literals
c shrunken:                5625979        56.97 %  learned literals
c minishrunken:             785407         7.95 %  learned literals
c propagations:            6344281         0.09 M  per second
c reduced:                   29014        52.38 %  per conflict
c rephased:                     10      5539.20    interval
c restarts:                   1123        49.33    interval
c stabilizing:                   3        62.08 %  of conflicts
c substituted:                  12         0.23 %  of all variables
c subsumed:                  19285         0.96 %  of all clauses
c strengthened:              10225         0.51 %  of all clauses
c ternary:                    4170         0.50 %  of resolved
c vivified:                    141         0.01 %  of all clauses
c walked:                        2     27696.00    interval
c weakened:                   5645         3.10    average size
c 
c seconds are measured in process time for solving
c 
c --- [ resources ] ----------------------------------------------------------
c 
c total process time since initialization:        82.08    seconds
c total real time since initialization:           82.20    seconds
c maximum resident set size of process:          844.26    MB
c 
c --- [ shutting down ] ------------------------------------------------------
c 
c exit 10
WARNING! DIMACS header mismatch: wrong number of variables.
============================[ Problem Statistics ]=============================
|                                                                             |
|  Number of variables:          3177                                         |
|  Number of clauses:          185884                                         |
|  Parse time:                   1.04 s                                       |
|  Simplification time:          0.03 s                                       |
|                                                                             |
============================[ Search Statistics ]====================================================
| Conflicts |          ORIGINAL         |          LEARNT          | Num Sols |      SUBGRAPHS      |
|           |    Vars  Clauses Literals |    Limit  Clauses Lit/Cl |          | Canonical Noncanon. |
=====================================================================================================
|       105 |    3097   185889 16736223 |     2000      105    158 |        0 |        11         5 |
|       262 |    3097   185896 16736446 |     2000      262    109 |        0 |        31        12 |
|       496 |    3097   185905 16736678 |     2000      496    109 |        0 |        41        21 |
|       835 |    3097   185907 16736840 |     2000      835    122 |        0 |        46        23 |
|      1370 |    3097   185936 16737793 |     2000     1370    126 |        0 |        63        52 |
|      2143 |    3097   185950 16738456 |     3603     1146     90 |        0 |        67        66 |
|      3286 |    3097   185954 16738623 |     3603     2289    110 |        0 |        71        70 |
|      5124 |    3097   186084 16741452 |     5002     2326     73 |        0 |       160       200 |
|      7801 |    3097   186199 16743655 |     6305     2506     49 |        0 |       225       315 |
|     11894 |    3097   186448 16748880 |     7553     3447     49 |        0 |       267       564 |
|     18048 |    3097   186836 16757386 |     8782     5830     70 |        0 |       432       952 |
|     26986 |    3097   187125 16764220 |    11203     5389     41 |        0 |       552      1241 |
|     40350 |    3097   187515 16773334 |    13607     6957     37 |        0 |       792      1631 |
|     61491 |    3097   189195 16801204 |    16015    13906     56 |        0 |      1147      3311 |
|     91525 |    3097   190037 16818023 |    19615    18140     69 |        0 |      1449      4153 |
|    135890 |    3097   190613 16830324 |    24408    19698     55 |        0 |      1783      4729 |
|    202975 |    3097   192014 16856544 |    30411    19786     53 |        0 |      2552      6130 |
|    305051 |    3097   195564 16926196 |    37610    21661     43 |        0 |      3744      9680 |
|    458551 |    3097   201275 17047138 |    46017    30968     51 |        0 |      6056     15391 |
|    691622 |    3097   212663 17302313 |    56819    35441     44 |        0 |     10244     26779 |
|   1031164 |    3097   219680 17441374 |    68812    63976     64 |        0 |     12996     33796 |
|   1537479 |    3097   227207 17588145 |    84428    76307     67 |        0 |     15545     41323 |
|   2302785 |    3097   244331 17913439 |   103617    94402     63 |        0 |     21993     58447 |
|   3432810 |    3097   252082 18089944 |   127616    74426     36 |        0 |     24899     66198 |
|   5195500 |    3085   284099 19060322 |   156422   140322     72 |        0 |     49412    145477 |
|   7767634 |    3085   331117 20099766 |   192411   105445     45 |        0 |     62264    192495 |
|  11639932 |    3067   222527 17509174 |   230851   131783     60 |        0 |     82467    277118 |
|  17368298 |    2966   168759 13064882 |   286526   257024     54 |        0 |     99758    323972 |
=====================================================================================================
Number of solutions   : 0
Canonical subgraphs   : 100698         (14 /sec)
          order  3    : 1              (166667 /sec)
          order  4    : 1              (500000 /sec)
          order  5    : 1              (250000 /sec)
          order  6    : 1              (58824 /sec)
          order  7    : 1              (9091 /sec)
          order  8    : 2              (1338 /sec)
          order  9    : 6              (310 /sec)
          order 10    : 22             (87 /sec)
          order 11    : 98             (28 /sec)
          order 12    : 435            (7 /sec)
          order 13    : 2188           (8 /sec)
          order 14    : 13890          (12 /sec)
          order 15    : 80644          (15 /sec)
          order 16    : 3167           (14 /sec)
          order 17    : 183            (11 /sec)
          order 18    : 41             (10 /sec)
          order 19    : 14             (10 /sec)
          order 20    : 3              (11 /sec)
          order 21    : 0              (-nan /sec)
Noncanonical subgraphs: 326872         (382 /sec)
          order  3    : 0              (-nan /sec)
          order  4    : 0              (-nan /sec)
          order  5    : 0              (-nan /sec)
          order  6    : 0              (-nan /sec)
          order  7    : 0              (-nan /sec)
          order  8    : 0              (-nan /sec)
          order  9    : 0              (-nan /sec)
          order 10    : 0              (-nan /sec)
          order 11    : 0              (-nan /sec)
          order 12    : 0              (-nan /sec)
          order 13    : 7523           (8297 /sec)
          order 14    : 38272          (3541 /sec)
          order 15    : 213516         (781 /sec)
          order 16    : 67487          (118 /sec)
          order 17    : 63             (95 /sec)
          order 18    : 8              (31 /sec)
          order 19    : 0              (-nan /sec)
          order 20    : 0              (-nan /sec)
Canonicity checking   : 7123.75 s
Noncanonicity checking: 855.698 s
Total canonicity time : 7979.45 s
database reductions   : 244
restarts              : 27450
conflicts             : 18301327       (1160 /sec)
decisions             : 23209325       (0.00 % random) (1471 /sec)
propagations          : 1051553707     (66657 /sec)
conflict literals     : 1695342318     (57.41 % deleted)
actual reward         : 0.214587
Memory used           : 406.00 MB
CPU time              : 15775.6 s

UNSATISFIABLE
